c F_13^(3,5) Ramsey CNF; edge-lex order; True=red
p cnf 78 1573
-1 -2 -13 0
-1 -3 -14 0
-1 -4 -15 0
-1 -5 -16 0
-1 -6 -17 0
-1 -7 -18 0
-1 -8 -19 0
-1 -9 -20 0
-1 -10 -21 0
-1 -11 -22 0
-1 -12 -23 0
-2 -3 -24 0
-2 -4 -25 0
-2 -5 -26 0
-2 -6 -27 0
-2 -7 -28 0
-2 -8 -29 0
-2 -9 -30 0
-2 -10 -31 0
-2 -11 -32 0
-2 -12 -33 0
-3 -4 -34 0
-3 -5 -35 0
-3 -6 -36 0
-3 -7 -37 0
-3 -8 -38 0
-3 -9 -39 0
-3 -10 -40 0
-3 -11 -41 0
-3 -12 -42 0
-4 -5 -43 0
-4 -6 -44 0
-4 -7 -45 0
-4 -8 -46 0
-4 -9 -47 0
-4 -10 -48 0
-4 -11 -49 0
-4 -12 -50 0
-5 -6 -51 0
-5 -7 -52 0
-5 -8 -53 0
-5 -9 -54 0
-5 -10 -55 0
-5 -11 -56 0
-5 -12 -57 0
-6 -7 -58 0
-6 -8 -59 0
-6 -9 -60 0
-6 -10 -61 0
-6 -11 -62 0
-6 -12 -63 0
-7 -8 -64 0
-7 -9 -65 0
-7 -10 -66 0
-7 -11 -67 0
-7 -12 -68 0
-8 -9 -69 0
-8 -10 -70 0
-8 -11 -71 0
-8 -12 -72 0
-9 -10 -73 0
-9 -11 -74 0
-9 -12 -75 0
-10 -11 -76 0
-10 -12 -77 0
-11 -12 -78 0
-13 -14 -24 0
-13 -15 -25 0
-13 -16 -26 0
-13 -17 -27 0
-13 -18 -28 0
-13 -19 -29 0
-13 -20 -30 0
-13 -21 -31 0
-13 -22 -32 0
-13 -23 -33 0
-14 -15 -34 0
-14 -16 -35 0
-14 -17 -36 0
-14 -18 -37 0
-14 -19 -38 0
-14 -20 -39 0
-14 -21 -40 0
-14 -22 -41 0
-14 -23 -42 0
-15 -16 -43 0
-15 -17 -44 0
-15 -18 -45 0
-15 -19 -46 0
-15 -20 -47 0
-15 -21 -48 0
-15 -22 -49 0
-15 -23 -50 0
-16 -17 -51 0
-16 -18 -52 0
-16 -19 -53 0
-16 -20 -54 0
-16 -21 -55 0
-16 -22 -56 0
-16 -23 -57 0
-17 -18 -58 0
-17 -19 -59 0
-17 -20 -60 0
-17 -21 -61 0
-17 -22 -62 0
-17 -23 -63 0
-18 -19 -64 0
-18 -20 -65 0
-18 -21 -66 0
-18 -22 -67 0
-18 -23 -68 0
-19 -20 -69 0
-19 -21 -70 0
-19 -22 -71 0
-19 -23 -72 0
-20 -21 -73 0
-20 -22 -74 0
-20 -23 -75 0
-21 -22 -76 0
-21 -23 -77 0
-22 -23 -78 0
-24 -25 -34 0
-24 -26 -35 0
-24 -27 -36 0
-24 -28 -37 0
-24 -29 -38 0
-24 -30 -39 0
-24 -31 -40 0
-24 -32 -41 0
-24 -33 -42 0
-25 -26 -43 0
-25 -27 -44 0
-25 -28 -45 0
-25 -29 -46 0
-25 -30 -47 0
-25 -31 -48 0
-25 -32 -49 0
-25 -33 -50 0
-26 -27 -51 0
-26 -28 -52 0
-26 -29 -53 0
-26 -30 -54 0
-26 -31 -55 0
-26 -32 -56 0
-26 -33 -57 0
-27 -28 -58 0
-27 -29 -59 0
-27 -30 -60 0
-27 -31 -61 0
-27 -32 -62 0
-27 -33 -63 0
-28 -29 -64 0
-28 -30 -65 0
-28 -31 -66 0
-28 -32 -67 0
-28 -33 -68 0
-29 -30 -69 0
-29 -31 -70 0
-29 -32 -71 0
-29 -33 -72 0
-30 -31 -73 0
-30 -32 -74 0
-30 -33 -75 0
-31 -32 -76 0
-31 -33 -77 0
-32 -33 -78 0
-34 -35 -43 0
-34 -36 -44 0
-34 -37 -45 0
-34 -38 -46 0
-34 -39 -47 0
-34 -40 -48 0
-34 -41 -49 0
-34 -42 -50 0
-35 -36 -51 0
-35 -37 -52 0
-35 -38 -53 0
-35 -39 -54 0
-35 -40 -55 0
-35 -41 -56 0
-35 -42 -57 0
-36 -37 -58 0
-36 -38 -59 0
-36 -39 -60 0
-36 -40 -61 0
-36 -41 -62 0
-36 -42 -63 0
-37 -38 -64 0
-37 -39 -65 0
-37 -40 -66 0
-37 -41 -67 0
-37 -42 -68 0
-38 -39 -69 0
-38 -40 -70 0
-38 -41 -71 0
-38 -42 -72 0
-39 -40 -73 0
-39 -41 -74 0
-39 -42 -75 0
-40 -41 -76 0
-40 -42 -77 0
-41 -42 -78 0
-43 -44 -51 0
-43 -45 -52 0
-43 -46 -53 0
-43 -47 -54 0
-43 -48 -55 0
-43 -49 -56 0
-43 -50 -57 0
-44 -45 -58 0
-44 -46 -59 0
-44 -47 -60 0
-44 -48 -61 0
-44 -49 -62 0
-44 -50 -63 0
-45 -46 -64 0
-45 -47 -65 0
-45 -48 -66 0
-45 -49 -67 0
-45 -50 -68 0
-46 -47 -69 0
-46 -48 -70 0
-46 -49 -71 0
-46 -50 -72 0
-47 -48 -73 0
-47 -49 -74 0
-47 -50 -75 0
-48 -49 -76 0
-48 -50 -77 0
-49 -50 -78 0
-51 -52 -58 0
-51 -53 -59 0
-51 -54 -60 0
-51 -55 -61 0
-51 -56 -62 0
-51 -57 -63 0
-52 -53 -64 0
-52 -54 -65 0
-52 -55 -66 0
-52 -56 -67 0
-52 -57 -68 0
-53 -54 -69 0
-53 -55 -70 0
-53 -56 -71 0
-53 -57 -72 0
-54 -55 -73 0
-54 -56 -74 0
-54 -57 -75 0
-55 -56 -76 0
-55 -57 -77 0
-56 -57 -78 0
-58 -59 -64 0
-58 -60 -65 0
-58 -61 -66 0
-58 -62 -67 0
-58 -63 -68 0
-59 -60 -69 0
-59 -61 -70 0
-59 -62 -71 0
-59 -63 -72 0
-60 -61 -73 0
-60 -62 -74 0
-60 -63 -75 0
-61 -62 -76 0
-61 -63 -77 0
-62 -63 -78 0
-64 -65 -69 0
-64 -66 -70 0
-64 -67 -71 0
-64 -68 -72 0
-65 -66 -73 0
-65 -67 -74 0
-65 -68 -75 0
-66 -67 -76 0
-66 -68 -77 0
-67 -68 -78 0
-69 -70 -73 0
-69 -71 -74 0
-69 -72 -75 0
-70 -71 -76 0
-70 -72 -77 0
-71 -72 -78 0
-73 -74 -76 0
-73 -75 -77 0
-74 -75 -78 0
-76 -77 -78 0
1 2 3 4 13 14 15 24 25 34 0
1 2 3 5 13 14 16 24 26 35 0
1 2 3 6 13 14 17 24 27 36 0
1 2 3 7 13 14 18 24 28 37 0
1 2 3 8 13 14 19 24 29 38 0
1 2 3 9 13 14 20 24 30 39 0
1 2 3 10 13 14 21 24 31 40 0
1 2 3 11 13 14 22 24 32 41 0
1 2 3 12 13 14 23 24 33 42 0
1 2 4 5 13 15 16 25 26 43 0
1 2 4 6 13 15 17 25 27 44 0
1 2 4 7 13 15 18 25 28 45 0
1 2 4 8 13 15 19 25 29 46 0
1 2 4 9 13 15 20 25 30 47 0
1 2 4 10 13 15 21 25 31 48 0
1 2 4 11 13 15 22 25 32 49 0
1 2 4 12 13 15 23 25 33 50 0
1 2 5 6 13 16 17 26 27 51 0
1 2 5 7 13 16 18 26 28 52 0
1 2 5 8 13 16 19 26 29 53 0
1 2 5 9 13 16 20 26 30 54 0
1 2 5 10 13 16 21 26 31 55 0
1 2 5 11 13 16 22 26 32 56 0
1 2 5 12 13 16 23 26 33 57 0
1 2 6 7 13 17 18 27 28 58 0
1 2 6 8 13 17 19 27 29 59 0
1 2 6 9 13 17 20 27 30 60 0
1 2 6 10 13 17 21 27 31 61 0
1 2 6 11 13 17 22 27 32 62 0
1 2 6 12 13 17 23 27 33 63 0
1 2 7 8 13 18 19 28 29 64 0
1 2 7 9 13 18 20 28 30 65 0
1 2 7 10 13 18 21 28 31 66 0
1 2 7 11 13 18 22 28 32 67 0
1 2 7 12 13 18 23 28 33 68 0
1 2 8 9 13 19 20 29 30 69 0
1 2 8 10 13 19 21 29 31 70 0
1 2 8 11 13 19 22 29 32 71 0
1 2 8 12 13 19 23 29 33 72 0
1 2 9 10 13 20 21 30 31 73 0
1 2 9 11 13 20 22 30 32 74 0
1 2 9 12 13 20 23 30 33 75 0
1 2 10 11 13 21 22 31 32 76 0
1 2 10 12 13 21 23 31 33 77 0
1 2 11 12 13 22 23 32 33 78 0
1 3 4 5 14 15 16 34 35 43 0
1 3 4 6 14 15 17 34 36 44 0
1 3 4 7 14 15 18 34 37 45 0
1 3 4 8 14 15 19 34 38 46 0
1 3 4 9 14 15 20 34 39 47 0
1 3 4 10 14 15 21 34 40 48 0
1 3 4 11 14 15 22 34 41 49 0
1 3 4 12 14 15 23 34 42 50 0
1 3 5 6 14 16 17 35 36 51 0
1 3 5 7 14 16 18 35 37 52 0
1 3 5 8 14 16 19 35 38 53 0
1 3 5 9 14 16 20 35 39 54 0
1 3 5 10 14 16 21 35 40 55 0
1 3 5 11 14 16 22 35 41 56 0
1 3 5 12 14 16 23 35 42 57 0
1 3 6 7 14 17 18 36 37 58 0
1 3 6 8 14 17 19 36 38 59 0
1 3 6 9 14 17 20 36 39 60 0
1 3 6 10 14 17 21 36 40 61 0
1 3 6 11 14 17 22 36 41 62 0
1 3 6 12 14 17 23 36 42 63 0
1 3 7 8 14 18 19 37 38 64 0
1 3 7 9 14 18 20 37 39 65 0
1 3 7 10 14 18 21 37 40 66 0
1 3 7 11 14 18 22 37 41 67 0
1 3 7 12 14 18 23 37 42 68 0
1 3 8 9 14 19 20 38 39 69 0
1 3 8 10 14 19 21 38 40 70 0
1 3 8 11 14 19 22 38 41 71 0
1 3 8 12 14 19 23 38 42 72 0
1 3 9 10 14 20 21 39 40 73 0
1 3 9 11 14 20 22 39 41 74 0
1 3 9 12 14 20 23 39 42 75 0
1 3 10 11 14 21 22 40 41 76 0
1 3 10 12 14 21 23 40 42 77 0
1 3 11 12 14 22 23 41 42 78 0
1 4 5 6 15 16 17 43 44 51 0
1 4 5 7 15 16 18 43 45 52 0
1 4 5 8 15 16 19 43 46 53 0
1 4 5 9 15 16 20 43 47 54 0
1 4 5 10 15 16 21 43 48 55 0
1 4 5 11 15 16 22 43 49 56 0
1 4 5 12 15 16 23 43 50 57 0
1 4 6 7 15 17 18 44 45 58 0
1 4 6 8 15 17 19 44 46 59 0
1 4 6 9 15 17 20 44 47 60 0
1 4 6 10 15 17 21 44 48 61 0
1 4 6 11 15 17 22 44 49 62 0
1 4 6 12 15 17 23 44 50 63 0
1 4 7 8 15 18 19 45 46 64 0
1 4 7 9 15 18 20 45 47 65 0
1 4 7 10 15 18 21 45 48 66 0
1 4 7 11 15 18 22 45 49 67 0
1 4 7 12 15 18 23 45 50 68 0
1 4 8 9 15 19 20 46 47 69 0
1 4 8 10 15 19 21 46 48 70 0
1 4 8 11 15 19 22 46 49 71 0
1 4 8 12 15 19 23 46 50 72 0
1 4 9 10 15 20 21 47 48 73 0
1 4 9 11 15 20 22 47 49 74 0
1 4 9 12 15 20 23 47 50 75 0
1 4 10 11 15 21 22 48 49 76 0
1 4 10 12 15 21 23 48 50 77 0
1 4 11 12 15 22 23 49 50 78 0
1 5 6 7 16 17 18 51 52 58 0
1 5 6 8 16 17 19 51 53 59 0
1 5 6 9 16 17 20 51 54 60 0
1 5 6 10 16 17 21 51 55 61 0
1 5 6 11 16 17 22 51 56 62 0
1 5 6 12 16 17 23 51 57 63 0
1 5 7 8 16 18 19 52 53 64 0
1 5 7 9 16 18 20 52 54 65 0
1 5 7 10 16 18 21 52 55 66 0
1 5 7 11 16 18 22 52 56 67 0
1 5 7 12 16 18 23 52 57 68 0
1 5 8 9 16 19 20 53 54 69 0
1 5 8 10 16 19 21 53 55 70 0
1 5 8 11 16 19 22 53 56 71 0
1 5 8 12 16 19 23 53 57 72 0
1 5 9 10 16 20 21 54 55 73 0
1 5 9 11 16 20 22 54 56 74 0
1 5 9 12 16 20 23 54 57 75 0
1 5 10 11 16 21 22 55 56 76 0
1 5 10 12 16 21 23 55 57 77 0
1 5 11 12 16 22 23 56 57 78 0
1 6 7 8 17 18 19 58 59 64 0
1 6 7 9 17 18 20 58 60 65 0
1 6 7 10 17 18 21 58 61 66 0
1 6 7 11 17 18 22 58 62 67 0
1 6 7 12 17 18 23 58 63 68 0
1 6 8 9 17 19 20 59 60 69 0
1 6 8 10 17 19 21 59 61 70 0
1 6 8 11 17 19 22 59 62 71 0
1 6 8 12 17 19 23 59 63 72 0
1 6 9 10 17 20 21 60 61 73 0
1 6 9 11 17 20 22 60 62 74 0
1 6 9 12 17 20 23 60 63 75 0
1 6 10 11 17 21 22 61 62 76 0
1 6 10 12 17 21 23 61 63 77 0
1 6 11 12 17 22 23 62 63 78 0
1 7 8 9 18 19 20 64 65 69 0
1 7 8 10 18 19 21 64 66 70 0
1 7 8 11 18 19 22 64 67 71 0
1 7 8 12 18 19 23 64 68 72 0
1 7 9 10 18 20 21 65 66 73 0
1 7 9 11 18 20 22 65 67 74 0
1 7 9 12 18 20 23 65 68 75 0
1 7 10 11 18 21 22 66 67 76 0
1 7 10 12 18 21 23 66 68 77 0
1 7 11 12 18 22 23 67 68 78 0
1 8 9 10 19 20 21 69 70 73 0
1 8 9 11 19 20 22 69 71 74 0
1 8 9 12 19 20 23 69 72 75 0
1 8 10 11 19 21 22 70 71 76 0
1 8 10 12 19 21 23 70 72 77 0
1 8 11 12 19 22 23 71 72 78 0
1 9 10 11 20 21 22 73 74 76 0
1 9 10 12 20 21 23 73 75 77 0
1 9 11 12 20 22 23 74 75 78 0
1 10 11 12 21 22 23 76 77 78 0
2 3 4 5 24 25 26 34 35 43 0
2 3 4 6 24 25 27 34 36 44 0
2 3 4 7 24 25 28 34 37 45 0
2 3 4 8 24 25 29 34 38 46 0
2 3 4 9 24 25 30 34 39 47 0
2 3 4 10 24 25 31 34 40 48 0
2 3 4 11 24 25 32 34 41 49 0
2 3 4 12 24 25 33 34 42 50 0
2 3 5 6 24 26 27 35 36 51 0
2 3 5 7 24 26 28 35 37 52 0
2 3 5 8 24 26 29 35 38 53 0
2 3 5 9 24 26 30 35 39 54 0
2 3 5 10 24 26 31 35 40 55 0
2 3 5 11 24 26 32 35 41 56 0
2 3 5 12 24 26 33 35 42 57 0
2 3 6 7 24 27 28 36 37 58 0
2 3 6 8 24 27 29 36 38 59 0
2 3 6 9 24 27 30 36 39 60 0
2 3 6 10 24 27 31 36 40 61 0
2 3 6 11 24 27 32 36 41 62 0
2 3 6 12 24 27 33 36 42 63 0
2 3 7 8 24 28 29 37 38 64 0
2 3 7 9 24 28 30 37 39 65 0
2 3 7 10 24 28 31 37 40 66 0
2 3 7 11 24 28 32 37 41 67 0
2 3 7 12 24 28 33 37 42 68 0
2 3 8 9 24 29 30 38 39 69 0
2 3 8 10 24 29 31 38 40 70 0
2 3 8 11 24 29 32 38 41 71 0
2 3 8 12 24 29 33 38 42 72 0
2 3 9 10 24 30 31 39 40 73 0
2 3 9 11 24 30 32 39 41 74 0
2 3 9 12 24 30 33 39 42 75 0
2 3 10 11 24 31 32 40 41 76 0
2 3 10 12 24 31 33 40 42 77 0
2 3 11 12 24 32 33 41 42 78 0
2 4 5 6 25 26 27 43 44 51 0
2 4 5 7 25 26 28 43 45 52 0
2 4 5 8 25 26 29 43 46 53 0
2 4 5 9 25 26 30 43 47 54 0
2 4 5 10 25 26 31 43 48 55 0
2 4 5 11 25 26 32 43 49 56 0
2 4 5 12 25 26 33 43 50 57 0
2 4 6 7 25 27 28 44 45 58 0
2 4 6 8 25 27 29 44 46 59 0
2 4 6 9 25 27 30 44 47 60 0
2 4 6 10 25 27 31 44 48 61 0
2 4 6 11 25 27 32 44 49 62 0
2 4 6 12 25 27 33 44 50 63 0
2 4 7 8 25 28 29 45 46 64 0
2 4 7 9 25 28 30 45 47 65 0
2 4 7 10 25 28 31 45 48 66 0
2 4 7 11 25 28 32 45 49 67 0
2 4 7 12 25 28 33 45 50 68 0
2 4 8 9 25 29 30 46 47 69 0
2 4 8 10 25 29 31 46 48 70 0
2 4 8 11 25 29 32 46 49 71 0
2 4 8 12 25 29 33 46 50 72 0
2 4 9 10 25 30 31 47 48 73 0
2 4 9 11 25 30 32 47 49 74 0
2 4 9 12 25 30 33 47 50 75 0
2 4 10 11 25 31 32 48 49 76 0
2 4 10 12 25 31 33 48 50 77 0
2 4 11 12 25 32 33 49 50 78 0
2 5 6 7 26 27 28 51 52 58 0
2 5 6 8 26 27 29 51 53 59 0
2 5 6 9 26 27 30 51 54 60 0
2 5 6 10 26 27 31 51 55 61 0
2 5 6 11 26 27 32 51 56 62 0
2 5 6 12 26 27 33 51 57 63 0
2 5 7 8 26 28 29 52 53 64 0
2 5 7 9 26 28 30 52 54 65 0
2 5 7 10 26 28 31 52 55 66 0
2 5 7 11 26 28 32 52 56 67 0
2 5 7 12 26 28 33 52 57 68 0
2 5 8 9 26 29 30 53 54 69 0
2 5 8 10 26 29 31 53 55 70 0
2 5 8 11 26 29 32 53 56 71 0
2 5 8 12 26 29 33 53 57 72 0
2 5 9 10 26 30 31 54 55 73 0
2 5 9 11 26 30 32 54 56 74 0
2 5 9 12 26 30 33 54 57 75 0
2 5 10 11 26 31 32 55 56 76 0
2 5 10 12 26 31 33 55 57 77 0
2 5 11 12 26 32 33 56 57 78 0
2 6 7 8 27 28 29 58 59 64 0
2 6 7 9 27 28 30 58 60 65 0
2 6 7 10 27 28 31 58 61 66 0
2 6 7 11 27 28 32 58 62 67 0
2 6 7 12 27 28 33 58 63 68 0
2 6 8 9 27 29 30 59 60 69 0
2 6 8 10 27 29 31 59 61 70 0
2 6 8 11 27 29 32 59 62 71 0
2 6 8 12 27 29 33 59 63 72 0
2 6 9 10 27 30 31 60 61 73 0
2 6 9 11 27 30 32 60 62 74 0
2 6 9 12 27 30 33 60 63 75 0
2 6 10 11 27 31 32 61 62 76 0
2 6 10 12 27 31 33 61 63 77 0
2 6 11 12 27 32 33 62 63 78 0
2 7 8 9 28 29 30 64 65 69 0
2 7 8 10 28 29 31 64 66 70 0
2 7 8 11 28 29 32 64 67 71 0
2 7 8 12 28 29 33 64 68 72 0
2 7 9 10 28 30 31 65 66 73 0
2 7 9 11 28 30 32 65 67 74 0
2 7 9 12 28 30 33 65 68 75 0
2 7 10 11 28 31 32 66 67 76 0
2 7 10 12 28 31 33 66 68 77 0
2 7 11 12 28 32 33 67 68 78 0
2 8 9 10 29 30 31 69 70 73 0
2 8 9 11 29 30 32 69 71 74 0
2 8 9 12 29 30 33 69 72 75 0
2 8 10 11 29 31 32 70 71 76 0
2 8 10 12 29 31 33 70 72 77 0
2 8 11 12 29 32 33 71 72 78 0
2 9 10 11 30 31 32 73 74 76 0
2 9 10 12 30 31 33 73 75 77 0
2 9 11 12 30 32 33 74 75 78 0
2 10 11 12 31 32 33 76 77 78 0
3 4 5 6 34 35 36 43 44 51 0
3 4 5 7 34 35 37 43 45 52 0
3 4 5 8 34 35 38 43 46 53 0
3 4 5 9 34 35 39 43 47 54 0
3 4 5 10 34 35 40 43 48 55 0
3 4 5 11 34 35 41 43 49 56 0
3 4 5 12 34 35 42 43 50 57 0
3 4 6 7 34 36 37 44 45 58 0
3 4 6 8 34 36 38 44 46 59 0
3 4 6 9 34 36 39 44 47 60 0
3 4 6 10 34 36 40 44 48 61 0
3 4 6 11 34 36 41 44 49 62 0
3 4 6 12 34 36 42 44 50 63 0
3 4 7 8 34 37 38 45 46 64 0
3 4 7 9 34 37 39 45 47 65 0
3 4 7 10 34 37 40 45 48 66 0
3 4 7 11 34 37 41 45 49 67 0
3 4 7 12 34 37 42 45 50 68 0
3 4 8 9 34 38 39 46 47 69 0
3 4 8 10 34 38 40 46 48 70 0
3 4 8 11 34 38 41 46 49 71 0
3 4 8 12 34 38 42 46 50 72 0
3 4 9 10 34 39 40 47 48 73 0
3 4 9 11 34 39 41 47 49 74 0
3 4 9 12 34 39 42 47 50 75 0
3 4 10 11 34 40 41 48 49 76 0
3 4 10 12 34 40 42 48 50 77 0
3 4 11 12 34 41 42 49 50 78 0
3 5 6 7 35 36 37 51 52 58 0
3 5 6 8 35 36 38 51 53 59 0
3 5 6 9 35 36 39 51 54 60 0
3 5 6 10 35 36 40 51 55 61 0
3 5 6 11 35 36 41 51 56 62 0
3 5 6 12 35 36 42 51 57 63 0
3 5 7 8 35 37 38 52 53 64 0
3 5 7 9 35 37 39 52 54 65 0
3 5 7 10 35 37 40 52 55 66 0
3 5 7 11 35 37 41 52 56 67 0
3 5 7 12 35 37 42 52 57 68 0
3 5 8 9 35 38 39 53 54 69 0
3 5 8 10 35 38 40 53 55 70 0
3 5 8 11 35 38 41 53 56 71 0
3 5 8 12 35 38 42 53 57 72 0
3 5 9 10 35 39 40 54 55 73 0
3 5 9 11 35 39 41 54 56 74 0
3 5 9 12 35 39 42 54 57 75 0
3 5 10 11 35 40 41 55 56 76 0
3 5 10 12 35 40 42 55 57 77 0
3 5 11 12 35 41 42 56 57 78 0
3 6 7 8 36 37 38 58 59 64 0
3 6 7 9 36 37 39 58 60 65 0
3 6 7 10 36 37 40 58 61 66 0
3 6 7 11 36 37 41 58 62 67 0
3 6 7 12 36 37 42 58 63 68 0
3 6 8 9 36 38 39 59 60 69 0
3 6 8 10 36 38 40 59 61 70 0
3 6 8 11 36 38 41 59 62 71 0
3 6 8 12 36 38 42 59 63 72 0
3 6 9 10 36 39 40 60 61 73 0
3 6 9 11 36 39 41 60 62 74 0
3 6 9 12 36 39 42 60 63 75 0
3 6 10 11 36 40 41 61 62 76 0
3 6 10 12 36 40 42 61 63 77 0
3 6 11 12 36 41 42 62 63 78 0
3 7 8 9 37 38 39 64 65 69 0
3 7 8 10 37 38 40 64 66 70 0
3 7 8 11 37 38 41 64 67 71 0
3 7 8 12 37 38 42 64 68 72 0
3 7 9 10 37 39 40 65 66 73 0
3 7 9 11 37 39 41 65 67 74 0
3 7 9 12 37 39 42 65 68 75 0
3 7 10 11 37 40 41 66 67 76 0
3 7 10 12 37 40 42 66 68 77 0
3 7 11 12 37 41 42 67 68 78 0
3 8 9 10 38 39 40 69 70 73 0
3 8 9 11 38 39 41 69 71 74 0
3 8 9 12 38 39 42 69 72 75 0
3 8 10 11 38 40 41 70 71 76 0
3 8 10 12 38 40 42 70 72 77 0
3 8 11 12 38 41 42 71 72 78 0
3 9 10 11 39 40 41 73 74 76 0
3 9 10 12 39 40 42 73 75 77 0
3 9 11 12 39 41 42 74 75 78 0
3 10 11 12 40 41 42 76 77 78 0
4 5 6 7 43 44 45 51 52 58 0
4 5 6 8 43 44 46 51 53 59 0
4 5 6 9 43 44 47 51 54 60 0
4 5 6 10 43 44 48 51 55 61 0
4 5 6 11 43 44 49 51 56 62 0
4 5 6 12 43 44 50 51 57 63 0
4 5 7 8 43 45 46 52 53 64 0
4 5 7 9 43 45 47 52 54 65 0
4 5 7 10 43 45 48 52 55 66 0
4 5 7 11 43 45 49 52 56 67 0
4 5 7 12 43 45 50 52 57 68 0
4 5 8 9 43 46 47 53 54 69 0
4 5 8 10 43 46 48 53 55 70 0
4 5 8 11 43 46 49 53 56 71 0
4 5 8 12 43 46 50 53 57 72 0
4 5 9 10 43 47 48 54 55 73 0
4 5 9 11 43 47 49 54 56 74 0
4 5 9 12 43 47 50 54 57 75 0
4 5 10 11 43 48 49 55 56 76 0
4 5 10 12 43 48 50 55 57 77 0
4 5 11 12 43 49 50 56 57 78 0
4 6 7 8 44 45 46 58 59 64 0
4 6 7 9 44 45 47 58 60 65 0
4 6 7 10 44 45 48 58 61 66 0
4 6 7 11 44 45 49 58 62 67 0
4 6 7 12 44 45 50 58 63 68 0
4 6 8 9 44 46 47 59 60 69 0
4 6 8 10 44 46 48 59 61 70 0
4 6 8 11 44 46 49 59 62 71 0
4 6 8 12 44 46 50 59 63 72 0
4 6 9 10 44 47 48 60 61 73 0
4 6 9 11 44 47 49 60 62 74 0
4 6 9 12 44 47 50 60 63 75 0
4 6 10 11 44 48 49 61 62 76 0
4 6 10 12 44 48 50 61 63 77 0
4 6 11 12 44 49 50 62 63 78 0
4 7 8 9 45 46 47 64 65 69 0
4 7 8 10 45 46 48 64 66 70 0
4 7 8 11 45 46 49 64 67 71 0
4 7 8 12 45 46 50 64 68 72 0
4 7 9 10 45 47 48 65 66 73 0
4 7 9 11 45 47 49 65 67 74 0
4 7 9 12 45 47 50 65 68 75 0
4 7 10 11 45 48 49 66 67 76 0
4 7 10 12 45 48 50 66 68 77 0
4 7 11 12 45 49 50 67 68 78 0
4 8 9 10 46 47 48 69 70 73 0
4 8 9 11 46 47 49 69 71 74 0
4 8 9 12 46 47 50 69 72 75 0
4 8 10 11 46 48 49 70 71 76 0
4 8 10 12 46 48 50 70 72 77 0
4 8 11 12 46 49 50 71 72 78 0
4 9 10 11 47 48 49 73 74 76 0
4 9 10 12 47 48 50 73 75 77 0
4 9 11 12 47 49 50 74 75 78 0
4 10 11 12 48 49 50 76 77 78 0
5 6 7 8 51 52 53 58 59 64 0
5 6 7 9 51 52 54 58 60 65 0
5 6 7 10 51 52 55 58 61 66 0
5 6 7 11 51 52 56 58 62 67 0
5 6 7 12 51 52 57 58 63 68 0
5 6 8 9 51 53 54 59 60 69 0
5 6 8 10 51 53 55 59 61 70 0
5 6 8 11 51 53 56 59 62 71 0
5 6 8 12 51 53 57 59 63 72 0
5 6 9 10 51 54 55 60 61 73 0
5 6 9 11 51 54 56 60 62 74 0
5 6 9 12 51 54 57 60 63 75 0
5 6 10 11 51 55 56 61 62 76 0
5 6 10 12 51 55 57 61 63 77 0
5 6 11 12 51 56 57 62 63 78 0
5 7 8 9 52 53 54 64 65 69 0
5 7 8 10 52 53 55 64 66 70 0
5 7 8 11 52 53 56 64 67 71 0
5 7 8 12 52 53 57 64 68 72 0
5 7 9 10 52 54 55 65 66 73 0
5 7 9 11 52 54 56 65 67 74 0
5 7 9 12 52 54 57 65 68 75 0
5 7 10 11 52 55 56 66 67 76 0
5 7 10 12 52 55 57 66 68 77 0
5 7 11 12 52 56 57 67 68 78 0
5 8 9 10 53 54 55 69 70 73 0
5 8 9 11 53 54 56 69 71 74 0
5 8 9 12 53 54 57 69 72 75 0
5 8 10 11 53 55 56 70 71 76 0
5 8 10 12 53 55 57 70 72 77 0
5 8 11 12 53 56 57 71 72 78 0
5 9 10 11 54 55 56 73 74 76 0
5 9 10 12 54 55 57 73 75 77 0
5 9 11 12 54 56 57 74 75 78 0
5 10 11 12 55 56 57 76 77 78 0
6 7 8 9 58 59 60 64 65 69 0
6 7 8 10 58 59 61 64 66 70 0
6 7 8 11 58 59 62 64 67 71 0
6 7 8 12 58 59 63 64 68 72 0
6 7 9 10 58 60 61 65 66 73 0
6 7 9 11 58 60 62 65 67 74 0
6 7 9 12 58 60 63 65 68 75 0
6 7 10 11 58 61 62 66 67 76 0
6 7 10 12 58 61 63 66 68 77 0
6 7 11 12 58 62 63 67 68 78 0
6 8 9 10 59 60 61 69 70 73 0
6 8 9 11 59 60 62 69 71 74 0
6 8 9 12 59 60 63 69 72 75 0
6 8 10 11 59 61 62 70 71 76 0
6 8 10 12 59 61 63 70 72 77 0
6 8 11 12 59 62 63 71 72 78 0
6 9 10 11 60 61 62 73 74 76 0
6 9 10 12 60 61 63 73 75 77 0
6 9 11 12 60 62 63 74 75 78 0
6 10 11 12 61 62 63 76 77 78 0
7 8 9 10 64 65 66 69 70 73 0
7 8 9 11 64 65 67 69 71 74 0
7 8 9 12 64 65 68 69 72 75 0
7 8 10 11 64 66 67 70 71 76 0
7 8 10 12 64 66 68 70 72 77 0
7 8 11 12 64 67 68 71 72 78 0
7 9 10 11 65 66 67 73 74 76 0
7 9 10 12 65 66 68 73 75 77 0
7 9 11 12 65 67 68 74 75 78 0
7 10 11 12 66 67 68 76 77 78 0
8 9 10 11 69 70 71 73 74 76 0
8 9 10 12 69 70 72 73 75 77 0
8 9 11 12 69 71 72 74 75 78 0
8 10 11 12 70 71 72 76 77 78 0
9 10 11 12 73 74 75 76 77 78 0
13 14 15 16 24 25 26 34 35 43 0
13 14 15 17 24 25 27 34 36 44 0
13 14 15 18 24 25 28 34 37 45 0
13 14 15 19 24 25 29 34 38 46 0
13 14 15 20 24 25 30 34 39 47 0
13 14 15 21 24 25 31 34 40 48 0
13 14 15 22 24 25 32 34 41 49 0
13 14 15 23 24 25 33 34 42 50 0
13 14 16 17 24 26 27 35 36 51 0
13 14 16 18 24 26 28 35 37 52 0
13 14 16 19 24 26 29 35 38 53 0
13 14 16 20 24 26 30 35 39 54 0
13 14 16 21 24 26 31 35 40 55 0
13 14 16 22 24 26 32 35 41 56 0
13 14 16 23 24 26 33 35 42 57 0
13 14 17 18 24 27 28 36 37 58 0
13 14 17 19 24 27 29 36 38 59 0
13 14 17 20 24 27 30 36 39 60 0
13 14 17 21 24 27 31 36 40 61 0
13 14 17 22 24 27 32 36 41 62 0
13 14 17 23 24 27 33 36 42 63 0
13 14 18 19 24 28 29 37 38 64 0
13 14 18 20 24 28 30 37 39 65 0
13 14 18 21 24 28 31 37 40 66 0
13 14 18 22 24 28 32 37 41 67 0
13 14 18 23 24 28 33 37 42 68 0
13 14 19 20 24 29 30 38 39 69 0
13 14 19 21 24 29 31 38 40 70 0
13 14 19 22 24 29 32 38 41 71 0
13 14 19 23 24 29 33 38 42 72 0
13 14 20 21 24 30 31 39 40 73 0
13 14 20 22 24 30 32 39 41 74 0
13 14 20 23 24 30 33 39 42 75 0
13 14 21 22 24 31 32 40 41 76 0
13 14 21 23 24 31 33 40 42 77 0
13 14 22 23 24 32 33 41 42 78 0
13 15 16 17 25 26 27 43 44 51 0
13 15 16 18 25 26 28 43 45 52 0
13 15 16 19 25 26 29 43 46 53 0
13 15 16 20 25 26 30 43 47 54 0
13 15 16 21 25 26 31 43 48 55 0
13 15 16 22 25 26 32 43 49 56 0
13 15 16 23 25 26 33 43 50 57 0
13 15 17 18 25 27 28 44 45 58 0
13 15 17 19 25 27 29 44 46 59 0
13 15 17 20 25 27 30 44 47 60 0
13 15 17 21 25 27 31 44 48 61 0
13 15 17 22 25 27 32 44 49 62 0
13 15 17 23 25 27 33 44 50 63 0
13 15 18 19 25 28 29 45 46 64 0
13 15 18 20 25 28 30 45 47 65 0
13 15 18 21 25 28 31 45 48 66 0
13 15 18 22 25 28 32 45 49 67 0
13 15 18 23 25 28 33 45 50 68 0
13 15 19 20 25 29 30 46 47 69 0
13 15 19 21 25 29 31 46 48 70 0
13 15 19 22 25 29 32 46 49 71 0
13 15 19 23 25 29 33 46 50 72 0
13 15 20 21 25 30 31 47 48 73 0
13 15 20 22 25 30 32 47 49 74 0
13 15 20 23 25 30 33 47 50 75 0
13 15 21 22 25 31 32 48 49 76 0
13 15 21 23 25 31 33 48 50 77 0
13 15 22 23 25 32 33 49 50 78 0
13 16 17 18 26 27 28 51 52 58 0
13 16 17 19 26 27 29 51 53 59 0
13 16 17 20 26 27 30 51 54 60 0
13 16 17 21 26 27 31 51 55 61 0
13 16 17 22 26 27 32 51 56 62 0
13 16 17 23 26 27 33 51 57 63 0
13 16 18 19 26 28 29 52 53 64 0
13 16 18 20 26 28 30 52 54 65 0
13 16 18 21 26 28 31 52 55 66 0
13 16 18 22 26 28 32 52 56 67 0
13 16 18 23 26 28 33 52 57 68 0
13 16 19 20 26 29 30 53 54 69 0
13 16 19 21 26 29 31 53 55 70 0
13 16 19 22 26 29 32 53 56 71 0
13 16 19 23 26 29 33 53 57 72 0
13 16 20 21 26 30 31 54 55 73 0
13 16 20 22 26 30 32 54 56 74 0
13 16 20 23 26 30 33 54 57 75 0
13 16 21 22 26 31 32 55 56 76 0
13 16 21 23 26 31 33 55 57 77 0
13 16 22 23 26 32 33 56 57 78 0
13 17 18 19 27 28 29 58 59 64 0
13 17 18 20 27 28 30 58 60 65 0
13 17 18 21 27 28 31 58 61 66 0
13 17 18 22 27 28 32 58 62 67 0
13 17 18 23 27 28 33 58 63 68 0
13 17 19 20 27 29 30 59 60 69 0
13 17 19 21 27 29 31 59 61 70 0
13 17 19 22 27 29 32 59 62 71 0
13 17 19 23 27 29 33 59 63 72 0
13 17 20 21 27 30 31 60 61 73 0
13 17 20 22 27 30 32 60 62 74 0
13 17 20 23 27 30 33 60 63 75 0
13 17 21 22 27 31 32 61 62 76 0
13 17 21 23 27 31 33 61 63 77 0
13 17 22 23 27 32 33 62 63 78 0
13 18 19 20 28 29 30 64 65 69 0
13 18 19 21 28 29 31 64 66 70 0
13 18 19 22 28 29 32 64 67 71 0
13 18 19 23 28 29 33 64 68 72 0
13 18 20 21 28 30 31 65 66 73 0
13 18 20 22 28 30 32 65 67 74 0
13 18 20 23 28 30 33 65 68 75 0
13 18 21 22 28 31 32 66 67 76 0
13 18 21 23 28 31 33 66 68 77 0
13 18 22 23 28 32 33 67 68 78 0
13 19 20 21 29 30 31 69 70 73 0
13 19 20 22 29 30 32 69 71 74 0
13 19 20 23 29 30 33 69 72 75 0
13 19 21 22 29 31 32 70 71 76 0
13 19 21 23 29 31 33 70 72 77 0
13 19 22 23 29 32 33 71 72 78 0
13 20 21 22 30 31 32 73 74 76 0
13 20 21 23 30 31 33 73 75 77 0
13 20 22 23 30 32 33 74 75 78 0
13 21 22 23 31 32 33 76 77 78 0
14 15 16 17 34 35 36 43 44 51 0
14 15 16 18 34 35 37 43 45 52 0
14 15 16 19 34 35 38 43 46 53 0
14 15 16 20 34 35 39 43 47 54 0
14 15 16 21 34 35 40 43 48 55 0
14 15 16 22 34 35 41 43 49 56 0
14 15 16 23 34 35 42 43 50 57 0
14 15 17 18 34 36 37 44 45 58 0
14 15 17 19 34 36 38 44 46 59 0
14 15 17 20 34 36 39 44 47 60 0
14 15 17 21 34 36 40 44 48 61 0
14 15 17 22 34 36 41 44 49 62 0
14 15 17 23 34 36 42 44 50 63 0
14 15 18 19 34 37 38 45 46 64 0
14 15 18 20 34 37 39 45 47 65 0
14 15 18 21 34 37 40 45 48 66 0
14 15 18 22 34 37 41 45 49 67 0
14 15 18 23 34 37 42 45 50 68 0
14 15 19 20 34 38 39 46 47 69 0
14 15 19 21 34 38 40 46 48 70 0
14 15 19 22 34 38 41 46 49 71 0
14 15 19 23 34 38 42 46 50 72 0
14 15 20 21 34 39 40 47 48 73 0
14 15 20 22 34 39 41 47 49 74 0
14 15 20 23 34 39 42 47 50 75 0
14 15 21 22 34 40 41 48 49 76 0
14 15 21 23 34 40 42 48 50 77 0
14 15 22 23 34 41 42 49 50 78 0
14 16 17 18 35 36 37 51 52 58 0
14 16 17 19 35 36 38 51 53 59 0
14 16 17 20 35 36 39 51 54 60 0
14 16 17 21 35 36 40 51 55 61 0
14 16 17 22 35 36 41 51 56 62 0
14 16 17 23 35 36 42 51 57 63 0
14 16 18 19 35 37 38 52 53 64 0
14 16 18 20 35 37 39 52 54 65 0
14 16 18 21 35 37 40 52 55 66 0
14 16 18 22 35 37 41 52 56 67 0
14 16 18 23 35 37 42 52 57 68 0
14 16 19 20 35 38 39 53 54 69 0
14 16 19 21 35 38 40 53 55 70 0
14 16 19 22 35 38 41 53 56 71 0
14 16 19 23 35 38 42 53 57 72 0
14 16 20 21 35 39 40 54 55 73 0
14 16 20 22 35 39 41 54 56 74 0
14 16 20 23 35 39 42 54 57 75 0
14 16 21 22 35 40 41 55 56 76 0
14 16 21 23 35 40 42 55 57 77 0
14 16 22 23 35 41 42 56 57 78 0
14 17 18 19 36 37 38 58 59 64 0
14 17 18 20 36 37 39 58 60 65 0
14 17 18 21 36 37 40 58 61 66 0
14 17 18 22 36 37 41 58 62 67 0
14 17 18 23 36 37 42 58 63 68 0
14 17 19 20 36 38 39 59 60 69 0
14 17 19 21 36 38 40 59 61 70 0
14 17 19 22 36 38 41 59 62 71 0
14 17 19 23 36 38 42 59 63 72 0
14 17 20 21 36 39 40 60 61 73 0
14 17 20 22 36 39 41 60 62 74 0
14 17 20 23 36 39 42 60 63 75 0
14 17 21 22 36 40 41 61 62 76 0
14 17 21 23 36 40 42 61 63 77 0
14 17 22 23 36 41 42 62 63 78 0
14 18 19 20 37 38 39 64 65 69 0
14 18 19 21 37 38 40 64 66 70 0
14 18 19 22 37 38 41 64 67 71 0
14 18 19 23 37 38 42 64 68 72 0
14 18 20 21 37 39 40 65 66 73 0
14 18 20 22 37 39 41 65 67 74 0
14 18 20 23 37 39 42 65 68 75 0
14 18 21 22 37 40 41 66 67 76 0
14 18 21 23 37 40 42 66 68 77 0
14 18 22 23 37 41 42 67 68 78 0
14 19 20 21 38 39 40 69 70 73 0
14 19 20 22 38 39 41 69 71 74 0
14 19 20 23 38 39 42 69 72 75 0
14 19 21 22 38 40 41 70 71 76 0
14 19 21 23 38 40 42 70 72 77 0
14 19 22 23 38 41 42 71 72 78 0
14 20 21 22 39 40 41 73 74 76 0
14 20 21 23 39 40 42 73 75 77 0
14 20 22 23 39 41 42 74 75 78 0
14 21 22 23 40 41 42 76 77 78 0
15 16 17 18 43 44 45 51 52 58 0
15 16 17 19 43 44 46 51 53 59 0
15 16 17 20 43 44 47 51 54 60 0
15 16 17 21 43 44 48 51 55 61 0
15 16 17 22 43 44 49 51 56 62 0
15 16 17 23 43 44 50 51 57 63 0
15 16 18 19 43 45 46 52 53 64 0
15 16 18 20 43 45 47 52 54 65 0
15 16 18 21 43 45 48 52 55 66 0
15 16 18 22 43 45 49 52 56 67 0
15 16 18 23 43 45 50 52 57 68 0
15 16 19 20 43 46 47 53 54 69 0
15 16 19 21 43 46 48 53 55 70 0
15 16 19 22 43 46 49 53 56 71 0
15 16 19 23 43 46 50 53 57 72 0
15 16 20 21 43 47 48 54 55 73 0
15 16 20 22 43 47 49 54 56 74 0
15 16 20 23 43 47 50 54 57 75 0
15 16 21 22 43 48 49 55 56 76 0
15 16 21 23 43 48 50 55 57 77 0
15 16 22 23 43 49 50 56 57 78 0
15 17 18 19 44 45 46 58 59 64 0
15 17 18 20 44 45 47 58 60 65 0
15 17 18 21 44 45 48 58 61 66 0
15 17 18 22 44 45 49 58 62 67 0
15 17 18 23 44 45 50 58 63 68 0
15 17 19 20 44 46 47 59 60 69 0
15 17 19 21 44 46 48 59 61 70 0
15 17 19 22 44 46 49 59 62 71 0
15 17 19 23 44 46 50 59 63 72 0
15 17 20 21 44 47 48 60 61 73 0
15 17 20 22 44 47 49 60 62 74 0
15 17 20 23 44 47 50 60 63 75 0
15 17 21 22 44 48 49 61 62 76 0
15 17 21 23 44 48 50 61 63 77 0
15 17 22 23 44 49 50 62 63 78 0
15 18 19 20 45 46 47 64 65 69 0
15 18 19 21 45 46 48 64 66 70 0
15 18 19 22 45 46 49 64 67 71 0
15 18 19 23 45 46 50 64 68 72 0
15 18 20 21 45 47 48 65 66 73 0
15 18 20 22 45 47 49 65 67 74 0
15 18 20 23 45 47 50 65 68 75 0
15 18 21 22 45 48 49 66 67 76 0
15 18 21 23 45 48 50 66 68 77 0
15 18 22 23 45 49 50 67 68 78 0
15 19 20 21 46 47 48 69 70 73 0
15 19 20 22 46 47 49 69 71 74 0
15 19 20 23 46 47 50 69 72 75 0
15 19 21 22 46 48 49 70 71 76 0
15 19 21 23 46 48 50 70 72 77 0
15 19 22 23 46 49 50 71 72 78 0
15 20 21 22 47 48 49 73 74 76 0
15 20 21 23 47 48 50 73 75 77 0
15 20 22 23 47 49 50 74 75 78 0
15 21 22 23 48 49 50 76 77 78 0
16 17 18 19 51 52 53 58 59 64 0
16 17 18 20 51 52 54 58 60 65 0
16 17 18 21 51 52 55 58 61 66 0
16 17 18 22 51 52 56 58 62 67 0
16 17 18 23 51 52 57 58 63 68 0
16 17 19 20 51 53 54 59 60 69 0
16 17 19 21 51 53 55 59 61 70 0
16 17 19 22 51 53 56 59 62 71 0
16 17 19 23 51 53 57 59 63 72 0
16 17 20 21 51 54 55 60 61 73 0
16 17 20 22 51 54 56 60 62 74 0
16 17 20 23 51 54 57 60 63 75 0
16 17 21 22 51 55 56 61 62 76 0
16 17 21 23 51 55 57 61 63 77 0
16 17 22 23 51 56 57 62 63 78 0
16 18 19 20 52 53 54 64 65 69 0
16 18 19 21 52 53 55 64 66 70 0
16 18 19 22 52 53 56 64 67 71 0
16 18 19 23 52 53 57 64 68 72 0
16 18 20 21 52 54 55 65 66 73 0
16 18 20 22 52 54 56 65 67 74 0
16 18 20 23 52 54 57 65 68 75 0
16 18 21 22 52 55 56 66 67 76 0
16 18 21 23 52 55 57 66 68 77 0
16 18 22 23 52 56 57 67 68 78 0
16 19 20 21 53 54 55 69 70 73 0
16 19 20 22 53 54 56 69 71 74 0
16 19 20 23 53 54 57 69 72 75 0
16 19 21 22 53 55 56 70 71 76 0
16 19 21 23 53 55 57 70 72 77 0
16 19 22 23 53 56 57 71 72 78 0
16 20 21 22 54 55 56 73 74 76 0
16 20 21 23 54 55 57 73 75 77 0
16 20 22 23 54 56 57 74 75 78 0
16 21 22 23 55 56 57 76 77 78 0
17 18 19 20 58 59 60 64 65 69 0
17 18 19 21 58 59 61 64 66 70 0
17 18 19 22 58 59 62 64 67 71 0
17 18 19 23 58 59 63 64 68 72 0
17 18 20 21 58 60 61 65 66 73 0
17 18 20 22 58 60 62 65 67 74 0
17 18 20 23 58 60 63 65 68 75 0
17 18 21 22 58 61 62 66 67 76 0
17 18 21 23 58 61 63 66 68 77 0
17 18 22 23 58 62 63 67 68 78 0
17 19 20 21 59 60 61 69 70 73 0
17 19 20 22 59 60 62 69 71 74 0
17 19 20 23 59 60 63 69 72 75 0
17 19 21 22 59 61 62 70 71 76 0
17 19 21 23 59 61 63 70 72 77 0
17 19 22 23 59 62 63 71 72 78 0
17 20 21 22 60 61 62 73 74 76 0
17 20 21 23 60 61 63 73 75 77 0
17 20 22 23 60 62 63 74 75 78 0
17 21 22 23 61 62 63 76 77 78 0
18 19 20 21 64 65 66 69 70 73 0
18 19 20 22 64 65 67 69 71 74 0
18 19 20 23 64 65 68 69 72 75 0
18 19 21 22 64 66 67 70 71 76 0
18 19 21 23 64 66 68 70 72 77 0
18 19 22 23 64 67 68 71 72 78 0
18 20 21 22 65 66 67 73 74 76 0
18 20 21 23 65 66 68 73 75 77 0
18 20 22 23 65 67 68 74 75 78 0
18 21 22 23 66 67 68 76 77 78 0
19 20 21 22 69 70 71 73 74 76 0
19 20 21 23 69 70 72 73 75 77 0
19 20 22 23 69 71 72 74 75 78 0
19 21 22 23 70 71 72 76 77 78 0
20 21 22 23 73 74 75 76 77 78 0
24 25 26 27 34 35 36 43 44 51 0
24 25 26 28 34 35 37 43 45 52 0
24 25 26 29 34 35 38 43 46 53 0
24 25 26 30 34 35 39 43 47 54 0
24 25 26 31 34 35 40 43 48 55 0
24 25 26 32 34 35 41 43 49 56 0
24 25 26 33 34 35 42 43 50 57 0
24 25 27 28 34 36 37 44 45 58 0
24 25 27 29 34 36 38 44 46 59 0
24 25 27 30 34 36 39 44 47 60 0
24 25 27 31 34 36 40 44 48 61 0
24 25 27 32 34 36 41 44 49 62 0
24 25 27 33 34 36 42 44 50 63 0
24 25 28 29 34 37 38 45 46 64 0
24 25 28 30 34 37 39 45 47 65 0
24 25 28 31 34 37 40 45 48 66 0
24 25 28 32 34 37 41 45 49 67 0
24 25 28 33 34 37 42 45 50 68 0
24 25 29 30 34 38 39 46 47 69 0
24 25 29 31 34 38 40 46 48 70 0
24 25 29 32 34 38 41 46 49 71 0
24 25 29 33 34 38 42 46 50 72 0
24 25 30 31 34 39 40 47 48 73 0
24 25 30 32 34 39 41 47 49 74 0
24 25 30 33 34 39 42 47 50 75 0
24 25 31 32 34 40 41 48 49 76 0
24 25 31 33 34 40 42 48 50 77 0
24 25 32 33 34 41 42 49 50 78 0
24 26 27 28 35 36 37 51 52 58 0
24 26 27 29 35 36 38 51 53 59 0
24 26 27 30 35 36 39 51 54 60 0
24 26 27 31 35 36 40 51 55 61 0
24 26 27 32 35 36 41 51 56 62 0
24 26 27 33 35 36 42 51 57 63 0
24 26 28 29 35 37 38 52 53 64 0
24 26 28 30 35 37 39 52 54 65 0
24 26 28 31 35 37 40 52 55 66 0
24 26 28 32 35 37 41 52 56 67 0
24 26 28 33 35 37 42 52 57 68 0
24 26 29 30 35 38 39 53 54 69 0
24 26 29 31 35 38 40 53 55 70 0
24 26 29 32 35 38 41 53 56 71 0
24 26 29 33 35 38 42 53 57 72 0
24 26 30 31 35 39 40 54 55 73 0
24 26 30 32 35 39 41 54 56 74 0
24 26 30 33 35 39 42 54 57 75 0
24 26 31 32 35 40 41 55 56 76 0
24 26 31 33 35 40 42 55 57 77 0
24 26 32 33 35 41 42 56 57 78 0
24 27 28 29 36 37 38 58 59 64 0
24 27 28 30 36 37 39 58 60 65 0
24 27 28 31 36 37 40 58 61 66 0
24 27 28 32 36 37 41 58 62 67 0
24 27 28 33 36 37 42 58 63 68 0
24 27 29 30 36 38 39 59 60 69 0
24 27 29 31 36 38 40 59 61 70 0
24 27 29 32 36 38 41 59 62 71 0
24 27 29 33 36 38 42 59 63 72 0
24 27 30 31 36 39 40 60 61 73 0
24 27 30 32 36 39 41 60 62 74 0
24 27 30 33 36 39 42 60 63 75 0
24 27 31 32 36 40 41 61 62 76 0
24 27 31 33 36 40 42 61 63 77 0
24 27 32 33 36 41 42 62 63 78 0
24 28 29 30 37 38 39 64 65 69 0
24 28 29 31 37 38 40 64 66 70 0
24 28 29 32 37 38 41 64 67 71 0
24 28 29 33 37 38 42 64 68 72 0
24 28 30 31 37 39 40 65 66 73 0
24 28 30 32 37 39 41 65 67 74 0
24 28 30 33 37 39 42 65 68 75 0
24 28 31 32 37 40 41 66 67 76 0
24 28 31 33 37 40 42 66 68 77 0
24 28 32 33 37 41 42 67 68 78 0
24 29 30 31 38 39 40 69 70 73 0
24 29 30 32 38 39 41 69 71 74 0
24 29 30 33 38 39 42 69 72 75 0
24 29 31 32 38 40 41 70 71 76 0
24 29 31 33 38 40 42 70 72 77 0
24 29 32 33 38 41 42 71 72 78 0
24 30 31 32 39 40 41 73 74 76 0
24 30 31 33 39 40 42 73 75 77 0
24 30 32 33 39 41 42 74 75 78 0
24 31 32 33 40 41 42 76 77 78 0
25 26 27 28 43 44 45 51 52 58 0
25 26 27 29 43 44 46 51 53 59 0
25 26 27 30 43 44 47 51 54 60 0
25 26 27 31 43 44 48 51 55 61 0
25 26 27 32 43 44 49 51 56 62 0
25 26 27 33 43 44 50 51 57 63 0
25 26 28 29 43 45 46 52 53 64 0
25 26 28 30 43 45 47 52 54 65 0
25 26 28 31 43 45 48 52 55 66 0
25 26 28 32 43 45 49 52 56 67 0
25 26 28 33 43 45 50 52 57 68 0
25 26 29 30 43 46 47 53 54 69 0
25 26 29 31 43 46 48 53 55 70 0
25 26 29 32 43 46 49 53 56 71 0
25 26 29 33 43 46 50 53 57 72 0
25 26 30 31 43 47 48 54 55 73 0
25 26 30 32 43 47 49 54 56 74 0
25 26 30 33 43 47 50 54 57 75 0
25 26 31 32 43 48 49 55 56 76 0
25 26 31 33 43 48 50 55 57 77 0
25 26 32 33 43 49 50 56 57 78 0
25 27 28 29 44 45 46 58 59 64 0
25 27 28 30 44 45 47 58 60 65 0
25 27 28 31 44 45 48 58 61 66 0
25 27 28 32 44 45 49 58 62 67 0
25 27 28 33 44 45 50 58 63 68 0
25 27 29 30 44 46 47 59 60 69 0
25 27 29 31 44 46 48 59 61 70 0
25 27 29 32 44 46 49 59 62 71 0
25 27 29 33 44 46 50 59 63 72 0
25 27 30 31 44 47 48 60 61 73 0
25 27 30 32 44 47 49 60 62 74 0
25 27 30 33 44 47 50 60 63 75 0
25 27 31 32 44 48 49 61 62 76 0
25 27 31 33 44 48 50 61 63 77 0
25 27 32 33 44 49 50 62 63 78 0
25 28 29 30 45 46 47 64 65 69 0
25 28 29 31 45 46 48 64 66 70 0
25 28 29 32 45 46 49 64 67 71 0
25 28 29 33 45 46 50 64 68 72 0
25 28 30 31 45 47 48 65 66 73 0
25 28 30 32 45 47 49 65 67 74 0
25 28 30 33 45 47 50 65 68 75 0
25 28 31 32 45 48 49 66 67 76 0
25 28 31 33 45 48 50 66 68 77 0
25 28 32 33 45 49 50 67 68 78 0
25 29 30 31 46 47 48 69 70 73 0
25 29 30 32 46 47 49 69 71 74 0
25 29 30 33 46 47 50 69 72 75 0
25 29 31 32 46 48 49 70 71 76 0
25 29 31 33 46 48 50 70 72 77 0
25 29 32 33 46 49 50 71 72 78 0
25 30 31 32 47 48 49 73 74 76 0
25 30 31 33 47 48 50 73 75 77 0
25 30 32 33 47 49 50 74 75 78 0
25 31 32 33 48 49 50 76 77 78 0
26 27 28 29 51 52 53 58 59 64 0
26 27 28 30 51 52 54 58 60 65 0
26 27 28 31 51 52 55 58 61 66 0
26 27 28 32 51 52 56 58 62 67 0
26 27 28 33 51 52 57 58 63 68 0
26 27 29 30 51 53 54 59 60 69 0
26 27 29 31 51 53 55 59 61 70 0
26 27 29 32 51 53 56 59 62 71 0
26 27 29 33 51 53 57 59 63 72 0
26 27 30 31 51 54 55 60 61 73 0
26 27 30 32 51 54 56 60 62 74 0
26 27 30 33 51 54 57 60 63 75 0
26 27 31 32 51 55 56 61 62 76 0
26 27 31 33 51 55 57 61 63 77 0
26 27 32 33 51 56 57 62 63 78 0
26 28 29 30 52 53 54 64 65 69 0
26 28 29 31 52 53 55 64 66 70 0
26 28 29 32 52 53 56 64 67 71 0
26 28 29 33 52 53 57 64 68 72 0
26 28 30 31 52 54 55 65 66 73 0
26 28 30 32 52 54 56 65 67 74 0
26 28 30 33 52 54 57 65 68 75 0
26 28 31 32 52 55 56 66 67 76 0
26 28 31 33 52 55 57 66 68 77 0
26 28 32 33 52 56 57 67 68 78 0
26 29 30 31 53 54 55 69 70 73 0
26 29 30 32 53 54 56 69 71 74 0
26 29 30 33 53 54 57 69 72 75 0
26 29 31 32 53 55 56 70 71 76 0
26 29 31 33 53 55 57 70 72 77 0
26 29 32 33 53 56 57 71 72 78 0
26 30 31 32 54 55 56 73 74 76 0
26 30 31 33 54 55 57 73 75 77 0
26 30 32 33 54 56 57 74 75 78 0
26 31 32 33 55 56 57 76 77 78 0
27 28 29 30 58 59 60 64 65 69 0
27 28 29 31 58 59 61 64 66 70 0
27 28 29 32 58 59 62 64 67 71 0
27 28 29 33 58 59 63 64 68 72 0
27 28 30 31 58 60 61 65 66 73 0
27 28 30 32 58 60 62 65 67 74 0
27 28 30 33 58 60 63 65 68 75 0
27 28 31 32 58 61 62 66 67 76 0
27 28 31 33 58 61 63 66 68 77 0
27 28 32 33 58 62 63 67 68 78 0
27 29 30 31 59 60 61 69 70 73 0
27 29 30 32 59 60 62 69 71 74 0
27 29 30 33 59 60 63 69 72 75 0
27 29 31 32 59 61 62 70 71 76 0
27 29 31 33 59 61 63 70 72 77 0
27 29 32 33 59 62 63 71 72 78 0
27 30 31 32 60 61 62 73 74 76 0
27 30 31 33 60 61 63 73 75 77 0
27 30 32 33 60 62 63 74 75 78 0
27 31 32 33 61 62 63 76 77 78 0
28 29 30 31 64 65 66 69 70 73 0
28 29 30 32 64 65 67 69 71 74 0
28 29 30 33 64 65 68 69 72 75 0
28 29 31 32 64 66 67 70 71 76 0
28 29 31 33 64 66 68 70 72 77 0
28 29 32 33 64 67 68 71 72 78 0
28 30 31 32 65 66 67 73 74 76 0
28 30 31 33 65 66 68 73 75 77 0
28 30 32 33 65 67 68 74 75 78 0
28 31 32 33 66 67 68 76 77 78 0
29 30 31 32 69 70 71 73 74 76 0
29 30 31 33 69 70 72 73 75 77 0
29 30 32 33 69 71 72 74 75 78 0
29 31 32 33 70 71 72 76 77 78 0
30 31 32 33 73 74 75 76 77 78 0
34 35 36 37 43 44 45 51 52 58 0
34 35 36 38 43 44 46 51 53 59 0
34 35 36 39 43 44 47 51 54 60 0
34 35 36 40 43 44 48 51 55 61 0
34 35 36 41 43 44 49 51 56 62 0
34 35 36 42 43 44 50 51 57 63 0
34 35 37 38 43 45 46 52 53 64 0
34 35 37 39 43 45 47 52 54 65 0
34 35 37 40 43 45 48 52 55 66 0
34 35 37 41 43 45 49 52 56 67 0
34 35 37 42 43 45 50 52 57 68 0
34 35 38 39 43 46 47 53 54 69 0
34 35 38 40 43 46 48 53 55 70 0
34 35 38 41 43 46 49 53 56 71 0
34 35 38 42 43 46 50 53 57 72 0
34 35 39 40 43 47 48 54 55 73 0
34 35 39 41 43 47 49 54 56 74 0
34 35 39 42 43 47 50 54 57 75 0
34 35 40 41 43 48 49 55 56 76 0
34 35 40 42 43 48 50 55 57 77 0
34 35 41 42 43 49 50 56 57 78 0
34 36 37 38 44 45 46 58 59 64 0
34 36 37 39 44 45 47 58 60 65 0
34 36 37 40 44 45 48 58 61 66 0
34 36 37 41 44 45 49 58 62 67 0
34 36 37 42 44 45 50 58 63 68 0
34 36 38 39 44 46 47 59 60 69 0
34 36 38 40 44 46 48 59 61 70 0
34 36 38 41 44 46 49 59 62 71 0
34 36 38 42 44 46 50 59 63 72 0
34 36 39 40 44 47 48 60 61 73 0
34 36 39 41 44 47 49 60 62 74 0
34 36 39 42 44 47 50 60 63 75 0
34 36 40 41 44 48 49 61 62 76 0
34 36 40 42 44 48 50 61 63 77 0
34 36 41 42 44 49 50 62 63 78 0
34 37 38 39 45 46 47 64 65 69 0
34 37 38 40 45 46 48 64 66 70 0
34 37 38 41 45 46 49 64 67 71 0
34 37 38 42 45 46 50 64 68 72 0
34 37 39 40 45 47 48 65 66 73 0
34 37 39 41 45 47 49 65 67 74 0
34 37 39 42 45 47 50 65 68 75 0
34 37 40 41 45 48 49 66 67 76 0
34 37 40 42 45 48 50 66 68 77 0
34 37 41 42 45 49 50 67 68 78 0
34 38 39 40 46 47 48 69 70 73 0
34 38 39 41 46 47 49 69 71 74 0
34 38 39 42 46 47 50 69 72 75 0
34 38 40 41 46 48 49 70 71 76 0
34 38 40 42 46 48 50 70 72 77 0
34 38 41 42 46 49 50 71 72 78 0
34 39 40 41 47 48 49 73 74 76 0
34 39 40 42 47 48 50 73 75 77 0
34 39 41 42 47 49 50 74 75 78 0
34 40 41 42 48 49 50 76 77 78 0
35 36 37 38 51 52 53 58 59 64 0
35 36 37 39 51 52 54 58 60 65 0
35 36 37 40 51 52 55 58 61 66 0
35 36 37 41 51 52 56 58 62 67 0
35 36 37 42 51 52 57 58 63 68 0
35 36 38 39 51 53 54 59 60 69 0
35 36 38 40 51 53 55 59 61 70 0
35 36 38 41 51 53 56 59 62 71 0
35 36 38 42 51 53 57 59 63 72 0
35 36 39 40 51 54 55 60 61 73 0
35 36 39 41 51 54 56 60 62 74 0
35 36 39 42 51 54 57 60 63 75 0
35 36 40 41 51 55 56 61 62 76 0
35 36 40 42 51 55 57 61 63 77 0
35 36 41 42 51 56 57 62 63 78 0
35 37 38 39 52 53 54 64 65 69 0
35 37 38 40 52 53 55 64 66 70 0
35 37 38 41 52 53 56 64 67 71 0
35 37 38 42 52 53 57 64 68 72 0
35 37 39 40 52 54 55 65 66 73 0
35 37 39 41 52 54 56 65 67 74 0
35 37 39 42 52 54 57 65 68 75 0
35 37 40 41 52 55 56 66 67 76 0
35 37 40 42 52 55 57 66 68 77 0
35 37 41 42 52 56 57 67 68 78 0
35 38 39 40 53 54 55 69 70 73 0
35 38 39 41 53 54 56 69 71 74 0
35 38 39 42 53 54 57 69 72 75 0
35 38 40 41 53 55 56 70 71 76 0
35 38 40 42 53 55 57 70 72 77 0
35 38 41 42 53 56 57 71 72 78 0
35 39 40 41 54 55 56 73 74 76 0
35 39 40 42 54 55 57 73 75 77 0
35 39 41 42 54 56 57 74 75 78 0
35 40 41 42 55 56 57 76 77 78 0
36 37 38 39 58 59 60 64 65 69 0
36 37 38 40 58 59 61 64 66 70 0
36 37 38 41 58 59 62 64 67 71 0
36 37 38 42 58 59 63 64 68 72 0
36 37 39 40 58 60 61 65 66 73 0
36 37 39 41 58 60 62 65 67 74 0
36 37 39 42 58 60 63 65 68 75 0
36 37 40 41 58 61 62 66 67 76 0
36 37 40 42 58 61 63 66 68 77 0
36 37 41 42 58 62 63 67 68 78 0
36 38 39 40 59 60 61 69 70 73 0
36 38 39 41 59 60 62 69 71 74 0
36 38 39 42 59 60 63 69 72 75 0
36 38 40 41 59 61 62 70 71 76 0
36 38 40 42 59 61 63 70 72 77 0
36 38 41 42 59 62 63 71 72 78 0
36 39 40 41 60 61 62 73 74 76 0
36 39 40 42 60 61 63 73 75 77 0
36 39 41 42 60 62 63 74 75 78 0
36 40 41 42 61 62 63 76 77 78 0
37 38 39 40 64 65 66 69 70 73 0
37 38 39 41 64 65 67 69 71 74 0
37 38 39 42 64 65 68 69 72 75 0
37 38 40 41 64 66 67 70 71 76 0
37 38 40 42 64 66 68 70 72 77 0
37 38 41 42 64 67 68 71 72 78 0
37 39 40 41 65 66 67 73 74 76 0
37 39 40 42 65 66 68 73 75 77 0
37 39 41 42 65 67 68 74 75 78 0
37 40 41 42 66 67 68 76 77 78 0
38 39 40 41 69 70 71 73 74 76 0
38 39 40 42 69 70 72 73 75 77 0
38 39 41 42 69 71 72 74 75 78 0
38 40 41 42 70 71 72 76 77 78 0
39 40 41 42 73 74 75 76 77 78 0
43 44 45 46 51 52 53 58 59 64 0
43 44 45 47 51 52 54 58 60 65 0
43 44 45 48 51 52 55 58 61 66 0
43 44 45 49 51 52 56 58 62 67 0
43 44 45 50 51 52 57 58 63 68 0
43 44 46 47 51 53 54 59 60 69 0
43 44 46 48 51 53 55 59 61 70 0
43 44 46 49 51 53 56 59 62 71 0
43 44 46 50 51 53 57 59 63 72 0
43 44 47 48 51 54 55 60 61 73 0
43 44 47 49 51 54 56 60 62 74 0
43 44 47 50 51 54 57 60 63 75 0
43 44 48 49 51 55 56 61 62 76 0
43 44 48 50 51 55 57 61 63 77 0
43 44 49 50 51 56 57 62 63 78 0
43 45 46 47 52 53 54 64 65 69 0
43 45 46 48 52 53 55 64 66 70 0
43 45 46 49 52 53 56 64 67 71 0
43 45 46 50 52 53 57 64 68 72 0
43 45 47 48 52 54 55 65 66 73 0
43 45 47 49 52 54 56 65 67 74 0
43 45 47 50 52 54 57 65 68 75 0
43 45 48 49 52 55 56 66 67 76 0
43 45 48 50 52 55 57 66 68 77 0
43 45 49 50 52 56 57 67 68 78 0
43 46 47 48 53 54 55 69 70 73 0
43 46 47 49 53 54 56 69 71 74 0
43 46 47 50 53 54 57 69 72 75 0
43 46 48 49 53 55 56 70 71 76 0
43 46 48 50 53 55 57 70 72 77 0
43 46 49 50 53 56 57 71 72 78 0
43 47 48 49 54 55 56 73 74 76 0
43 47 48 50 54 55 57 73 75 77 0
43 47 49 50 54 56 57 74 75 78 0
43 48 49 50 55 56 57 76 77 78 0
44 45 46 47 58 59 60 64 65 69 0
44 45 46 48 58 59 61 64 66 70 0
44 45 46 49 58 59 62 64 67 71 0
44 45 46 50 58 59 63 64 68 72 0
44 45 47 48 58 60 61 65 66 73 0
44 45 47 49 58 60 62 65 67 74 0
44 45 47 50 58 60 63 65 68 75 0
44 45 48 49 58 61 62 66 67 76 0
44 45 48 50 58 61 63 66 68 77 0
44 45 49 50 58 62 63 67 68 78 0
44 46 47 48 59 60 61 69 70 73 0
44 46 47 49 59 60 62 69 71 74 0
44 46 47 50 59 60 63 69 72 75 0
44 46 48 49 59 61 62 70 71 76 0
44 46 48 50 59 61 63 70 72 77 0
44 46 49 50 59 62 63 71 72 78 0
44 47 48 49 60 61 62 73 74 76 0
44 47 48 50 60 61 63 73 75 77 0
44 47 49 50 60 62 63 74 75 78 0
44 48 49 50 61 62 63 76 77 78 0
45 46 47 48 64 65 66 69 70 73 0
45 46 47 49 64 65 67 69 71 74 0
45 46 47 50 64 65 68 69 72 75 0
45 46 48 49 64 66 67 70 71 76 0
45 46 48 50 64 66 68 70 72 77 0
45 46 49 50 64 67 68 71 72 78 0
45 47 48 49 65 66 67 73 74 76 0
45 47 48 50 65 66 68 73 75 77 0
45 47 49 50 65 67 68 74 75 78 0
45 48 49 50 66 67 68 76 77 78 0
46 47 48 49 69 70 71 73 74 76 0
46 47 48 50 69 70 72 73 75 77 0
46 47 49 50 69 71 72 74 75 78 0
46 48 49 50 70 71 72 76 77 78 0
47 48 49 50 73 74 75 76 77 78 0
51 52 53 54 58 59 60 64 65 69 0
51 52 53 55 58 59 61 64 66 70 0
51 52 53 56 58 59 62 64 67 71 0
51 52 53 57 58 59 63 64 68 72 0
51 52 54 55 58 60 61 65 66 73 0
51 52 54 56 58 60 62 65 67 74 0
51 52 54 57 58 60 63 65 68 75 0
51 52 55 56 58 61 62 66 67 76 0
51 52 55 57 58 61 63 66 68 77 0
51 52 56 57 58 62 63 67 68 78 0
51 53 54 55 59 60 61 69 70 73 0
51 53 54 56 59 60 62 69 71 74 0
51 53 54 57 59 60 63 69 72 75 0
51 53 55 56 59 61 62 70 71 76 0
51 53 55 57 59 61 63 70 72 77 0
51 53 56 57 59 62 63 71 72 78 0
51 54 55 56 60 61 62 73 74 76 0
51 54 55 57 60 61 63 73 75 77 0
51 54 56 57 60 62 63 74 75 78 0
51 55 56 57 61 62 63 76 77 78 0
52 53 54 55 64 65 66 69 70 73 0
52 53 54 56 64 65 67 69 71 74 0
52 53 54 57 64 65 68 69 72 75 0
52 53 55 56 64 66 67 70 71 76 0
52 53 55 57 64 66 68 70 72 77 0
52 53 56 57 64 67 68 71 72 78 0
52 54 55 56 65 66 67 73 74 76 0
52 54 55 57 65 66 68 73 75 77 0
52 54 56 57 65 67 68 74 75 78 0
52 55 56 57 66 67 68 76 77 78 0
53 54 55 56 69 70 71 73 74 76 0
53 54 55 57 69 70 72 73 75 77 0
53 54 56 57 69 71 72 74 75 78 0
53 55 56 57 70 71 72 76 77 78 0
54 55 56 57 73 74 75 76 77 78 0
58 59 60 61 64 65 66 69 70 73 0
58 59 60 62 64 65 67 69 71 74 0
58 59 60 63 64 65 68 69 72 75 0
58 59 61 62 64 66 67 70 71 76 0
58 59 61 63 64 66 68 70 72 77 0
58 59 62 63 64 67 68 71 72 78 0
58 60 61 62 65 66 67 73 74 76 0
58 60 61 63 65 66 68 73 75 77 0
58 60 62 63 65 67 68 74 75 78 0
58 61 62 63 66 67 68 76 77 78 0
59 60 61 62 69 70 71 73 74 76 0
59 60 61 63 69 70 72 73 75 77 0
59 60 62 63 69 71 72 74 75 78 0
59 61 62 63 70 71 72 76 77 78 0
60 61 62 63 73 74 75 76 77 78 0
64 65 66 67 69 70 71 73 74 76 0
64 65 66 68 69 70 72 73 75 77 0
64 65 67 68 69 71 72 74 75 78 0
64 66 67 68 70 71 72 76 77 78 0
65 66 67 68 73 74 75 76 77 78 0
69 70 71 72 73 74 75 76 77 78 0
